local_stuff/sygus_stuff/sygus_inv_oai/repo/z3/71.out
STDOUT:
sat
(
  (define-fun inv ((x!0 Int) (x!1 Int) (x!2 Int)) Bool
    (>= x!2 0))
)


STDERR:
